(set-info :category "industrial")
(set-info :status sat)
(declare-fun x00 () (_ BitVec 8))
(declare-fun x01 () (_ BitVec 8))
(declare-fun x02 () (_ BitVec 8))
(declare-fun x04 () (_ BitVec 8))
(declare-fun x06 () (_ BitVec 8))
(declare-fun x08 () (_ BitVec 8))
(declare-fun x12 () (_ BitVec 8))
(declare-fun x13 () (_ BitVec 8))
(declare-fun x14 () (_ BitVec 8))
(declare-fun x15 () (_ BitVec 8))
(declare-fun x17 () (_ BitVec 8))
(declare-fun x18 () (_ BitVec 8))
(declare-fun x20 () (_ BitVec 8))
(declare-fun x21 () (_ BitVec 8))
(declare-fun x23 () (_ BitVec 8))
(declare-fun x26 () (_ BitVec 8))
(declare-fun x27 () (_ BitVec 8))
(declare-fun x31 () (_ BitVec 8))
(declare-fun x33 () (_ BitVec 8))
(declare-fun x35 () (_ BitVec 8))
(declare-fun x36 () (_ BitVec 8))
(declare-fun x40 () (_ BitVec 8))
(declare-fun x45 () (_ BitVec 8))
(declare-fun x46 () (_ BitVec 8))
(declare-fun x48 () (_ BitVec 8))
(declare-fun x51 () (_ BitVec 8))
(declare-fun x52 () (_ BitVec 8))
(declare-fun x53 () (_ BitVec 8))
(declare-fun x54 () (_ BitVec 8))
(declare-fun x55 () (_ BitVec 8))
(declare-fun x56 () (_ BitVec 8))
(declare-fun x57 () (_ BitVec 8))
(declare-fun x60 () (_ BitVec 8))
(declare-fun x65 () (_ BitVec 8))
(declare-fun x66 () (_ BitVec 8))
(declare-fun x67 () (_ BitVec 8))
(declare-fun x70 () (_ BitVec 8))
(declare-fun x72 () (_ BitVec 8))
(declare-fun x74 () (_ BitVec 8))
(declare-fun x77 () (_ BitVec 8))
(declare-fun x78 () (_ BitVec 8))
(declare-fun x80 () (_ BitVec 8))
(declare-fun x81 () (_ BitVec 8))
(declare-fun x85 () (_ BitVec 8))
(declare-fun x87 () (_ BitVec 8))
(declare-fun x88 () (_ BitVec 8))
(assert (bvult x00 (_ bv9 8)))
(assert (bvult x01 (_ bv9 8)))
(assert (bvult x02 (_ bv9 8)))
(assert (bvult x04 (_ bv9 8)))
(assert (bvult x06 (_ bv9 8)))
(assert (bvult x08 (_ bv9 8)))
(assert (bvult x12 (_ bv9 8)))
(assert (bvult x13 (_ bv9 8)))
(assert (bvult x14 (_ bv9 8)))
(assert (bvult x15 (_ bv9 8)))
(assert (bvult x17 (_ bv9 8)))
(assert (bvult x18 (_ bv9 8)))
(assert (bvult x20 (_ bv9 8)))
(assert (bvult x21 (_ bv9 8)))
(assert (bvult x23 (_ bv9 8)))
(assert (bvult x26 (_ bv9 8)))
(assert (bvult x27 (_ bv9 8)))
(assert (bvult x31 (_ bv9 8)))
(assert (bvult x33 (_ bv9 8)))
(assert (bvult x35 (_ bv9 8)))
(assert (bvult x36 (_ bv9 8)))
(assert (bvult x40 (_ bv9 8)))
(assert (bvult x45 (_ bv9 8)))
(assert (bvult x46 (_ bv9 8)))
(assert (bvult x48 (_ bv9 8)))
(assert (bvult x51 (_ bv9 8)))
(assert (bvult x52 (_ bv9 8)))
(assert (bvult x53 (_ bv9 8)))
(assert (bvult x54 (_ bv9 8)))
(assert (bvult x55 (_ bv9 8)))
(assert (bvult x56 (_ bv9 8)))
(assert (bvult x57 (_ bv9 8)))
(assert (bvult x60 (_ bv9 8)))
(assert (bvult x65 (_ bv9 8)))
(assert (bvult x66 (_ bv9 8)))
(assert (bvult x67 (_ bv9 8)))
(assert (bvult x70 (_ bv9 8)))
(assert (bvult x72 (_ bv9 8)))
(assert (bvult x74 (_ bv9 8)))
(assert (bvult x77 (_ bv9 8)))
(assert (bvult x78 (_ bv9 8)))
(assert (bvult x80 (_ bv9 8)))
(assert (bvult x81 (_ bv9 8)))
(assert (bvult x85 (_ bv9 8)))
(assert (bvult x87 (_ bv9 8)))
(assert (bvult x88 (_ bv9 8)))
(assert (not (= x00 x01)))
(assert (not (= x00 x02)))
(assert (not (= x00 (_ bv3 8))))
(assert (not (= x00 x04)))
(assert (not (= x00 (_ bv6 8))))
(assert (not (= x00 x06)))
(assert (not (= x00 (_ bv9 8))))
(assert (not (= x00 x08)))
(assert (not (= x01 x02)))
(assert (not (= x01 (_ bv3 8))))
(assert (not (= x01 x04)))
(assert (not (= x01 (_ bv6 8))))
(assert (not (= x01 x06)))
(assert (not (= x01 (_ bv9 8))))
(assert (not (= x01 x08)))
(assert (not (= x02 (_ bv3 8))))
(assert (not (= x02 x04)))
(assert (not (= x02 (_ bv6 8))))
(assert (not (= x02 x06)))
(assert (not (= x02 (_ bv9 8))))
(assert (not (= x02 x08)))
(assert (not (= (_ bv3 8) x04)))
(assert (not (= (_ bv3 8) (_ bv6 8))))
(assert (not (= (_ bv3 8) x06)))
(assert (not (= (_ bv3 8) (_ bv9 8))))
(assert (not (= (_ bv3 8) x08)))
(assert (not (= x04 (_ bv6 8))))
(assert (not (= x04 x06)))
(assert (not (= x04 (_ bv9 8))))
(assert (not (= x04 x08)))
(assert (not (= (_ bv6 8) x06)))
(assert (not (= (_ bv6 8) (_ bv9 8))))
(assert (not (= (_ bv6 8) x08)))
(assert (not (= x06 (_ bv9 8))))
(assert (not (= x06 x08)))
(assert (not (= (_ bv9 8) x08)))
(assert (not (= (_ bv3 8) (_ bv8 8))))
(assert (not (= (_ bv3 8) x12)))
(assert (not (= (_ bv3 8) x13)))
(assert (not (= (_ bv3 8) x14)))
(assert (not (= (_ bv3 8) x15)))
(assert (not (= (_ bv3 8) (_ bv7 8))))
(assert (not (= (_ bv3 8) x17)))
(assert (not (= (_ bv3 8) x18)))
(assert (not (= (_ bv8 8) x12)))
(assert (not (= (_ bv8 8) x13)))
(assert (not (= (_ bv8 8) x14)))
(assert (not (= (_ bv8 8) x15)))
(assert (not (= (_ bv8 8) (_ bv7 8))))
(assert (not (= (_ bv8 8) x17)))
(assert (not (= (_ bv8 8) x18)))
(assert (not (= x12 x13)))
(assert (not (= x12 x14)))
(assert (not (= x12 x15)))
(assert (not (= x12 (_ bv7 8))))
(assert (not (= x12 x17)))
(assert (not (= x12 x18)))
(assert (not (= x13 x14)))
(assert (not (= x13 x15)))
(assert (not (= x13 (_ bv7 8))))
(assert (not (= x13 x17)))
(assert (not (= x13 x18)))
(assert (not (= x14 x15)))
(assert (not (= x14 (_ bv7 8))))
(assert (not (= x14 x17)))
(assert (not (= x14 x18)))
(assert (not (= x15 (_ bv7 8))))
(assert (not (= x15 x17)))
(assert (not (= x15 x18)))
(assert (not (= (_ bv7 8) x17)))
(assert (not (= (_ bv7 8) x18)))
(assert (not (= x17 x18)))
(assert (not (= x20 x21)))
(assert (not (= x20 (_ bv5 8))))
(assert (not (= x20 x23)))
(assert (not (= x20 (_ bv8 8))))
(assert (not (= x20 (_ bv1 8))))
(assert (not (= x20 x26)))
(assert (not (= x20 x27)))
(assert (not (= x20 (_ bv2 8))))
(assert (not (= x21 (_ bv5 8))))
(assert (not (= x21 x23)))
(assert (not (= x21 (_ bv8 8))))
(assert (not (= x21 (_ bv1 8))))
(assert (not (= x21 x26)))
(assert (not (= x21 x27)))
(assert (not (= x21 (_ bv2 8))))
(assert (not (= (_ bv5 8) x23)))
(assert (not (= (_ bv5 8) (_ bv8 8))))
(assert (not (= (_ bv5 8) (_ bv1 8))))
(assert (not (= (_ bv5 8) x26)))
(assert (not (= (_ bv5 8) x27)))
(assert (not (= (_ bv5 8) (_ bv2 8))))
(assert (not (= x23 (_ bv8 8))))
(assert (not (= x23 (_ bv1 8))))
(assert (not (= x23 x26)))
(assert (not (= x23 x27)))
(assert (not (= x23 (_ bv2 8))))
(assert (not (= (_ bv8 8) (_ bv1 8))))
(assert (not (= (_ bv8 8) x26)))
(assert (not (= (_ bv8 8) x27)))
(assert (not (= (_ bv8 8) (_ bv2 8))))
(assert (not (= (_ bv1 8) x26)))
(assert (not (= (_ bv1 8) x27)))
(assert (not (= (_ bv1 8) (_ bv2 8))))
(assert (not (= x26 x27)))
(assert (not (= x26 (_ bv2 8))))
(assert (not (= x27 (_ bv2 8))))
(assert (not (= (_ bv9 8) x31)))
(assert (not (= (_ bv9 8) (_ bv1 8))))
(assert (not (= (_ bv9 8) x33)))
(assert (not (= (_ bv9 8) (_ bv5 8))))
(assert (not (= (_ bv9 8) x35)))
(assert (not (= (_ bv9 8) x36)))
(assert (not (= (_ bv9 8) (_ bv3 8))))
(assert (not (= (_ bv9 8) (_ bv8 8))))
(assert (not (= x31 (_ bv1 8))))
(assert (not (= x31 x33)))
(assert (not (= x31 (_ bv5 8))))
(assert (not (= x31 x35)))
(assert (not (= x31 x36)))
(assert (not (= x31 (_ bv3 8))))
(assert (not (= x31 (_ bv8 8))))
(assert (not (= (_ bv1 8) x33)))
(assert (not (= (_ bv1 8) (_ bv5 8))))
(assert (not (= (_ bv1 8) x35)))
(assert (not (= (_ bv1 8) x36)))
(assert (not (= (_ bv1 8) (_ bv3 8))))
(assert (not (= (_ bv1 8) (_ bv8 8))))
(assert (not (= x33 (_ bv5 8))))
(assert (not (= x33 x35)))
(assert (not (= x33 x36)))
(assert (not (= x33 (_ bv3 8))))
(assert (not (= x33 (_ bv8 8))))
(assert (not (= (_ bv5 8) x35)))
(assert (not (= (_ bv5 8) x36)))
(assert (not (= (_ bv5 8) (_ bv3 8))))
(assert (not (= (_ bv5 8) (_ bv8 8))))
(assert (not (= x35 x36)))
(assert (not (= x35 (_ bv3 8))))
(assert (not (= x35 (_ bv8 8))))
(assert (not (= x36 (_ bv3 8))))
(assert (not (= x36 (_ bv8 8))))
(assert (not (= (_ bv3 8) (_ bv8 8))))
(assert (not (= x40 (_ bv5 8))))
(assert (not (= x40 (_ bv8 8))))
(assert (not (= x40 (_ bv6 8))))
(assert (not (= x40 (_ bv2 8))))
(assert (not (= x40 x45)))
(assert (not (= x40 x46)))
(assert (not (= x40 (_ bv7 8))))
(assert (not (= x40 x48)))
(assert (not (= (_ bv5 8) (_ bv8 8))))
(assert (not (= (_ bv5 8) (_ bv6 8))))
(assert (not (= (_ bv5 8) (_ bv2 8))))
(assert (not (= (_ bv5 8) x45)))
(assert (not (= (_ bv5 8) x46)))
(assert (not (= (_ bv5 8) (_ bv7 8))))
(assert (not (= (_ bv5 8) x48)))
(assert (not (= (_ bv8 8) (_ bv6 8))))
(assert (not (= (_ bv8 8) (_ bv2 8))))
(assert (not (= (_ bv8 8) x45)))
(assert (not (= (_ bv8 8) x46)))
(assert (not (= (_ bv8 8) (_ bv7 8))))
(assert (not (= (_ bv8 8) x48)))
(assert (not (= (_ bv6 8) (_ bv2 8))))
(assert (not (= (_ bv6 8) x45)))
(assert (not (= (_ bv6 8) x46)))
(assert (not (= (_ bv6 8) (_ bv7 8))))
(assert (not (= (_ bv6 8) x48)))
(assert (not (= (_ bv2 8) x45)))
(assert (not (= (_ bv2 8) x46)))
(assert (not (= (_ bv2 8) (_ bv7 8))))
(assert (not (= (_ bv2 8) x48)))
(assert (not (= x45 x46)))
(assert (not (= x45 (_ bv7 8))))
(assert (not (= x45 x48)))
(assert (not (= x46 (_ bv7 8))))
(assert (not (= x46 x48)))
(assert (not (= (_ bv7 8) x48)))
(assert (not (= (_ bv7 8) x51)))
(assert (not (= (_ bv7 8) x52)))
(assert (not (= (_ bv7 8) x53)))
(assert (not (= (_ bv7 8) x54)))
(assert (not (= (_ bv7 8) x55)))
(assert (not (= (_ bv7 8) x56)))
(assert (not (= (_ bv7 8) x57)))
(assert (not (= (_ bv7 8) (_ bv4 8))))
(assert (not (= x51 x52)))
(assert (not (= x51 x53)))
(assert (not (= x51 x54)))
(assert (not (= x51 x55)))
(assert (not (= x51 x56)))
(assert (not (= x51 x57)))
(assert (not (= x51 (_ bv4 8))))
(assert (not (= x52 x53)))
(assert (not (= x52 x54)))
(assert (not (= x52 x55)))
(assert (not (= x52 x56)))
(assert (not (= x52 x57)))
(assert (not (= x52 (_ bv4 8))))
(assert (not (= x53 x54)))
(assert (not (= x53 x55)))
(assert (not (= x53 x56)))
(assert (not (= x53 x57)))
(assert (not (= x53 (_ bv4 8))))
(assert (not (= x54 x55)))
(assert (not (= x54 x56)))
(assert (not (= x54 x57)))
(assert (not (= x54 (_ bv4 8))))
(assert (not (= x55 x56)))
(assert (not (= x55 x57)))
(assert (not (= x55 (_ bv4 8))))
(assert (not (= x56 x57)))
(assert (not (= x56 (_ bv4 8))))
(assert (not (= x57 (_ bv4 8))))
(assert (not (= x60 (_ bv2 8))))
(assert (not (= x60 (_ bv3 8))))
(assert (not (= x60 (_ bv7 8))))
(assert (not (= x60 (_ bv6 8))))
(assert (not (= x60 x65)))
(assert (not (= x60 x66)))
(assert (not (= x60 x67)))
(assert (not (= x60 (_ bv9 8))))
(assert (not (= (_ bv2 8) (_ bv3 8))))
(assert (not (= (_ bv2 8) (_ bv7 8))))
(assert (not (= (_ bv2 8) (_ bv6 8))))
(assert (not (= (_ bv2 8) x65)))
(assert (not (= (_ bv2 8) x66)))
(assert (not (= (_ bv2 8) x67)))
(assert (not (= (_ bv2 8) (_ bv9 8))))
(assert (not (= (_ bv3 8) (_ bv7 8))))
(assert (not (= (_ bv3 8) (_ bv6 8))))
(assert (not (= (_ bv3 8) x65)))
(assert (not (= (_ bv3 8) x66)))
(assert (not (= (_ bv3 8) x67)))
(assert (not (= (_ bv3 8) (_ bv9 8))))
(assert (not (= (_ bv7 8) (_ bv6 8))))
(assert (not (= (_ bv7 8) x65)))
(assert (not (= (_ bv7 8) x66)))
(assert (not (= (_ bv7 8) x67)))
(assert (not (= (_ bv7 8) (_ bv9 8))))
(assert (not (= (_ bv6 8) x65)))
(assert (not (= (_ bv6 8) x66)))
(assert (not (= (_ bv6 8) x67)))
(assert (not (= (_ bv6 8) (_ bv9 8))))
(assert (not (= x65 x66)))
(assert (not (= x65 x67)))
(assert (not (= x65 (_ bv9 8))))
(assert (not (= x66 x67)))
(assert (not (= x66 (_ bv9 8))))
(assert (not (= x67 (_ bv9 8))))
(assert (not (= x70 (_ bv9 8))))
(assert (not (= x70 x72)))
(assert (not (= x70 (_ bv5 8))))
(assert (not (= x70 x74)))
(assert (not (= x70 (_ bv2 8))))
(assert (not (= x70 (_ bv4 8))))
(assert (not (= x70 x77)))
(assert (not (= x70 x78)))
(assert (not (= (_ bv9 8) x72)))
(assert (not (= (_ bv9 8) (_ bv5 8))))
(assert (not (= (_ bv9 8) x74)))
(assert (not (= (_ bv9 8) (_ bv2 8))))
(assert (not (= (_ bv9 8) (_ bv4 8))))
(assert (not (= (_ bv9 8) x77)))
(assert (not (= (_ bv9 8) x78)))
(assert (not (= x72 (_ bv5 8))))
(assert (not (= x72 x74)))
(assert (not (= x72 (_ bv2 8))))
(assert (not (= x72 (_ bv4 8))))
(assert (not (= x72 x77)))
(assert (not (= x72 x78)))
(assert (not (= (_ bv5 8) x74)))
(assert (not (= (_ bv5 8) (_ bv2 8))))
(assert (not (= (_ bv5 8) (_ bv4 8))))
(assert (not (= (_ bv5 8) x77)))
(assert (not (= (_ bv5 8) x78)))
(assert (not (= x74 (_ bv2 8))))
(assert (not (= x74 (_ bv4 8))))
(assert (not (= x74 x77)))
(assert (not (= x74 x78)))
(assert (not (= (_ bv2 8) (_ bv4 8))))
(assert (not (= (_ bv2 8) x77)))
(assert (not (= (_ bv2 8) x78)))
(assert (not (= (_ bv4 8) x77)))
(assert (not (= (_ bv4 8) x78)))
(assert (not (= x77 x78)))
(assert (not (= x80 x81)))
(assert (not (= x80 (_ bv6 8))))
(assert (not (= x80 (_ bv8 8))))
(assert (not (= x80 (_ bv3 8))))
(assert (not (= x80 x85)))
(assert (not (= x80 (_ bv5 8))))
(assert (not (= x80 x87)))
(assert (not (= x80 x88)))
(assert (not (= x81 (_ bv6 8))))
(assert (not (= x81 (_ bv8 8))))
(assert (not (= x81 (_ bv3 8))))
(assert (not (= x81 x85)))
(assert (not (= x81 (_ bv5 8))))
(assert (not (= x81 x87)))
(assert (not (= x81 x88)))
(assert (not (= (_ bv6 8) (_ bv8 8))))
(assert (not (= (_ bv6 8) (_ bv3 8))))
(assert (not (= (_ bv6 8) x85)))
(assert (not (= (_ bv6 8) (_ bv5 8))))
(assert (not (= (_ bv6 8) x87)))
(assert (not (= (_ bv6 8) x88)))
(assert (not (= (_ bv8 8) (_ bv3 8))))
(assert (not (= (_ bv8 8) x85)))
(assert (not (= (_ bv8 8) (_ bv5 8))))
(assert (not (= (_ bv8 8) x87)))
(assert (not (= (_ bv8 8) x88)))
(assert (not (= (_ bv3 8) x85)))
(assert (not (= (_ bv3 8) (_ bv5 8))))
(assert (not (= (_ bv3 8) x87)))
(assert (not (= (_ bv3 8) x88)))
(assert (not (= x85 (_ bv5 8))))
(assert (not (= x85 x87)))
(assert (not (= x85 x88)))
(assert (not (= (_ bv5 8) x87)))
(assert (not (= (_ bv5 8) x88)))
(assert (not (= x87 x88)))
(assert (not (= x00 (_ bv3 8))))
(assert (not (= x00 x20)))
(assert (not (= x00 (_ bv9 8))))
(assert (not (= x00 x40)))
(assert (not (= x00 (_ bv7 8))))
(assert (not (= x00 x60)))
(assert (not (= x00 x70)))
(assert (not (= x00 x80)))
(assert (not (= (_ bv3 8) x20)))
(assert (not (= (_ bv3 8) (_ bv9 8))))
(assert (not (= (_ bv3 8) x40)))
(assert (not (= (_ bv3 8) (_ bv7 8))))
(assert (not (= (_ bv3 8) x60)))
(assert (not (= (_ bv3 8) x70)))
(assert (not (= (_ bv3 8) x80)))
(assert (not (= x20 (_ bv9 8))))
(assert (not (= x20 x40)))
(assert (not (= x20 (_ bv7 8))))
(assert (not (= x20 x60)))
(assert (not (= x20 x70)))
(assert (not (= x20 x80)))
(assert (not (= (_ bv9 8) x40)))
(assert (not (= (_ bv9 8) (_ bv7 8))))
(assert (not (= (_ bv9 8) x60)))
(assert (not (= (_ bv9 8) x70)))
(assert (not (= (_ bv9 8) x80)))
(assert (not (= x40 (_ bv7 8))))
(assert (not (= x40 x60)))
(assert (not (= x40 x70)))
(assert (not (= x40 x80)))
(assert (not (= (_ bv7 8) x60)))
(assert (not (= (_ bv7 8) x70)))
(assert (not (= (_ bv7 8) x80)))
(assert (not (= x60 x70)))
(assert (not (= x60 x80)))
(assert (not (= x70 x80)))
(assert (not (= x01 (_ bv8 8))))
(assert (not (= x01 x21)))
(assert (not (= x01 x31)))
(assert (not (= x01 (_ bv5 8))))
(assert (not (= x01 x51)))
(assert (not (= x01 (_ bv2 8))))
(assert (not (= x01 (_ bv9 8))))
(assert (not (= x01 x81)))
(assert (not (= (_ bv8 8) x21)))
(assert (not (= (_ bv8 8) x31)))
(assert (not (= (_ bv8 8) (_ bv5 8))))
(assert (not (= (_ bv8 8) x51)))
(assert (not (= (_ bv8 8) (_ bv2 8))))
(assert (not (= (_ bv8 8) (_ bv9 8))))
(assert (not (= (_ bv8 8) x81)))
(assert (not (= x21 x31)))
(assert (not (= x21 (_ bv5 8))))
(assert (not (= x21 x51)))
(assert (not (= x21 (_ bv2 8))))
(assert (not (= x21 (_ bv9 8))))
(assert (not (= x21 x81)))
(assert (not (= x31 (_ bv5 8))))
(assert (not (= x31 x51)))
(assert (not (= x31 (_ bv2 8))))
(assert (not (= x31 (_ bv9 8))))
(assert (not (= x31 x81)))
(assert (not (= (_ bv5 8) x51)))
(assert (not (= (_ bv5 8) (_ bv2 8))))
(assert (not (= (_ bv5 8) (_ bv9 8))))
(assert (not (= (_ bv5 8) x81)))
(assert (not (= x51 (_ bv2 8))))
(assert (not (= x51 (_ bv9 8))))
(assert (not (= x51 x81)))
(assert (not (= (_ bv2 8) (_ bv9 8))))
(assert (not (= (_ bv2 8) x81)))
(assert (not (= (_ bv9 8) x81)))
(assert (not (= x02 x12)))
(assert (not (= x02 (_ bv5 8))))
(assert (not (= x02 (_ bv1 8))))
(assert (not (= x02 (_ bv8 8))))
(assert (not (= x02 x52)))
(assert (not (= x02 (_ bv3 8))))
(assert (not (= x02 x72)))
(assert (not (= x02 (_ bv6 8))))
(assert (not (= x12 (_ bv5 8))))
(assert (not (= x12 (_ bv1 8))))
(assert (not (= x12 (_ bv8 8))))
(assert (not (= x12 x52)))
(assert (not (= x12 (_ bv3 8))))
(assert (not (= x12 x72)))
(assert (not (= x12 (_ bv6 8))))
(assert (not (= (_ bv5 8) (_ bv1 8))))
(assert (not (= (_ bv5 8) (_ bv8 8))))
(assert (not (= (_ bv5 8) x52)))
(assert (not (= (_ bv5 8) (_ bv3 8))))
(assert (not (= (_ bv5 8) x72)))
(assert (not (= (_ bv5 8) (_ bv6 8))))
(assert (not (= (_ bv1 8) (_ bv8 8))))
(assert (not (= (_ bv1 8) x52)))
(assert (not (= (_ bv1 8) (_ bv3 8))))
(assert (not (= (_ bv1 8) x72)))
(assert (not (= (_ bv1 8) (_ bv6 8))))
(assert (not (= (_ bv8 8) x52)))
(assert (not (= (_ bv8 8) (_ bv3 8))))
(assert (not (= (_ bv8 8) x72)))
(assert (not (= (_ bv8 8) (_ bv6 8))))
(assert (not (= x52 (_ bv3 8))))
(assert (not (= x52 x72)))
(assert (not (= x52 (_ bv6 8))))
(assert (not (= (_ bv3 8) x72)))
(assert (not (= (_ bv3 8) (_ bv6 8))))
(assert (not (= x72 (_ bv6 8))))
(assert (not (= (_ bv3 8) x13)))
(assert (not (= (_ bv3 8) x23)))
(assert (not (= (_ bv3 8) x33)))
(assert (not (= (_ bv3 8) (_ bv6 8))))
(assert (not (= (_ bv3 8) x53)))
(assert (not (= (_ bv3 8) (_ bv7 8))))
(assert (not (= (_ bv3 8) (_ bv5 8))))
(assert (not (= (_ bv3 8) (_ bv8 8))))
(assert (not (= x13 x23)))
(assert (not (= x13 x33)))
(assert (not (= x13 (_ bv6 8))))
(assert (not (= x13 x53)))
(assert (not (= x13 (_ bv7 8))))
(assert (not (= x13 (_ bv5 8))))
(assert (not (= x13 (_ bv8 8))))
(assert (not (= x23 x33)))
(assert (not (= x23 (_ bv6 8))))
(assert (not (= x23 x53)))
(assert (not (= x23 (_ bv7 8))))
(assert (not (= x23 (_ bv5 8))))
(assert (not (= x23 (_ bv8 8))))
(assert (not (= x33 (_ bv6 8))))
(assert (not (= x33 x53)))
(assert (not (= x33 (_ bv7 8))))
(assert (not (= x33 (_ bv5 8))))
(assert (not (= x33 (_ bv8 8))))
(assert (not (= (_ bv6 8) x53)))
(assert (not (= (_ bv6 8) (_ bv7 8))))
(assert (not (= (_ bv6 8) (_ bv5 8))))
(assert (not (= (_ bv6 8) (_ bv8 8))))
(assert (not (= x53 (_ bv7 8))))
(assert (not (= x53 (_ bv5 8))))
(assert (not (= x53 (_ bv8 8))))
(assert (not (= (_ bv7 8) (_ bv5 8))))
(assert (not (= (_ bv7 8) (_ bv8 8))))
(assert (not (= (_ bv5 8) (_ bv8 8))))
(assert (not (= x04 x14)))
(assert (not (= x04 (_ bv8 8))))
(assert (not (= x04 (_ bv5 8))))
(assert (not (= x04 (_ bv2 8))))
(assert (not (= x04 x54)))
(assert (not (= x04 (_ bv6 8))))
(assert (not (= x04 x74)))
(assert (not (= x04 (_ bv3 8))))
(assert (not (= x14 (_ bv8 8))))
(assert (not (= x14 (_ bv5 8))))
(assert (not (= x14 (_ bv2 8))))
(assert (not (= x14 x54)))
(assert (not (= x14 (_ bv6 8))))
(assert (not (= x14 x74)))
(assert (not (= x14 (_ bv3 8))))
(assert (not (= (_ bv8 8) (_ bv5 8))))
(assert (not (= (_ bv8 8) (_ bv2 8))))
(assert (not (= (_ bv8 8) x54)))
(assert (not (= (_ bv8 8) (_ bv6 8))))
(assert (not (= (_ bv8 8) x74)))
(assert (not (= (_ bv8 8) (_ bv3 8))))
(assert (not (= (_ bv5 8) (_ bv2 8))))
(assert (not (= (_ bv5 8) x54)))
(assert (not (= (_ bv5 8) (_ bv6 8))))
(assert (not (= (_ bv5 8) x74)))
(assert (not (= (_ bv5 8) (_ bv3 8))))
(assert (not (= (_ bv2 8) x54)))
(assert (not (= (_ bv2 8) (_ bv6 8))))
(assert (not (= (_ bv2 8) x74)))
(assert (not (= (_ bv2 8) (_ bv3 8))))
(assert (not (= x54 (_ bv6 8))))
(assert (not (= x54 x74)))
(assert (not (= x54 (_ bv3 8))))
(assert (not (= (_ bv6 8) x74)))
(assert (not (= (_ bv6 8) (_ bv3 8))))
(assert (not (= x74 (_ bv3 8))))
(assert (not (= (_ bv6 8) x15)))
(assert (not (= (_ bv6 8) (_ bv1 8))))
(assert (not (= (_ bv6 8) x35)))
(assert (not (= (_ bv6 8) x45)))
(assert (not (= (_ bv6 8) x55)))
(assert (not (= (_ bv6 8) x65)))
(assert (not (= (_ bv6 8) (_ bv2 8))))
(assert (not (= (_ bv6 8) x85)))
(assert (not (= x15 (_ bv1 8))))
(assert (not (= x15 x35)))
(assert (not (= x15 x45)))
(assert (not (= x15 x55)))
(assert (not (= x15 x65)))
(assert (not (= x15 (_ bv2 8))))
(assert (not (= x15 x85)))
(assert (not (= (_ bv1 8) x35)))
(assert (not (= (_ bv1 8) x45)))
(assert (not (= (_ bv1 8) x55)))
(assert (not (= (_ bv1 8) x65)))
(assert (not (= (_ bv1 8) (_ bv2 8))))
(assert (not (= (_ bv1 8) x85)))
(assert (not (= x35 x45)))
(assert (not (= x35 x55)))
(assert (not (= x35 x65)))
(assert (not (= x35 (_ bv2 8))))
(assert (not (= x35 x85)))
(assert (not (= x45 x55)))
(assert (not (= x45 x65)))
(assert (not (= x45 (_ bv2 8))))
(assert (not (= x45 x85)))
(assert (not (= x55 x65)))
(assert (not (= x55 (_ bv2 8))))
(assert (not (= x55 x85)))
(assert (not (= x65 (_ bv2 8))))
(assert (not (= x65 x85)))
(assert (not (= (_ bv2 8) x85)))
(assert (not (= x06 (_ bv7 8))))
(assert (not (= x06 x26)))
(assert (not (= x06 x36)))
(assert (not (= x06 x46)))
(assert (not (= x06 x56)))
(assert (not (= x06 x66)))
(assert (not (= x06 (_ bv4 8))))
(assert (not (= x06 (_ bv5 8))))
(assert (not (= (_ bv7 8) x26)))
(assert (not (= (_ bv7 8) x36)))
(assert (not (= (_ bv7 8) x46)))
(assert (not (= (_ bv7 8) x56)))
(assert (not (= (_ bv7 8) x66)))
(assert (not (= (_ bv7 8) (_ bv4 8))))
(assert (not (= (_ bv7 8) (_ bv5 8))))
(assert (not (= x26 x36)))
(assert (not (= x26 x46)))
(assert (not (= x26 x56)))
(assert (not (= x26 x66)))
(assert (not (= x26 (_ bv4 8))))
(assert (not (= x26 (_ bv5 8))))
(assert (not (= x36 x46)))
(assert (not (= x36 x56)))
(assert (not (= x36 x66)))
(assert (not (= x36 (_ bv4 8))))
(assert (not (= x36 (_ bv5 8))))
(assert (not (= x46 x56)))
(assert (not (= x46 x66)))
(assert (not (= x46 (_ bv4 8))))
(assert (not (= x46 (_ bv5 8))))
(assert (not (= x56 x66)))
(assert (not (= x56 (_ bv4 8))))
(assert (not (= x56 (_ bv5 8))))
(assert (not (= x66 (_ bv4 8))))
(assert (not (= x66 (_ bv5 8))))
(assert (not (= (_ bv4 8) (_ bv5 8))))
(assert (not (= (_ bv9 8) x17)))
(assert (not (= (_ bv9 8) x27)))
(assert (not (= (_ bv9 8) (_ bv3 8))))
(assert (not (= (_ bv9 8) (_ bv7 8))))
(assert (not (= (_ bv9 8) x57)))
(assert (not (= (_ bv9 8) x67)))
(assert (not (= (_ bv9 8) x77)))
(assert (not (= (_ bv9 8) x87)))
(assert (not (= x17 x27)))
(assert (not (= x17 (_ bv3 8))))
(assert (not (= x17 (_ bv7 8))))
(assert (not (= x17 x57)))
(assert (not (= x17 x67)))
(assert (not (= x17 x77)))
(assert (not (= x17 x87)))
(assert (not (= x27 (_ bv3 8))))
(assert (not (= x27 (_ bv7 8))))
(assert (not (= x27 x57)))
(assert (not (= x27 x67)))
(assert (not (= x27 x77)))
(assert (not (= x27 x87)))
(assert (not (= (_ bv3 8) (_ bv7 8))))
(assert (not (= (_ bv3 8) x57)))
(assert (not (= (_ bv3 8) x67)))
(assert (not (= (_ bv3 8) x77)))
(assert (not (= (_ bv3 8) x87)))
(assert (not (= (_ bv7 8) x57)))
(assert (not (= (_ bv7 8) x67)))
(assert (not (= (_ bv7 8) x77)))
(assert (not (= (_ bv7 8) x87)))
(assert (not (= x57 x67)))
(assert (not (= x57 x77)))
(assert (not (= x57 x87)))
(assert (not (= x67 x77)))
(assert (not (= x67 x87)))
(assert (not (= x77 x87)))
(assert (not (= x08 x18)))
(assert (not (= x08 (_ bv2 8))))
(assert (not (= x08 (_ bv8 8))))
(assert (not (= x08 x48)))
(assert (not (= x08 (_ bv4 8))))
(assert (not (= x08 (_ bv9 8))))
(assert (not (= x08 x78)))
(assert (not (= x08 x88)))
(assert (not (= x18 (_ bv2 8))))
(assert (not (= x18 (_ bv8 8))))
(assert (not (= x18 x48)))
(assert (not (= x18 (_ bv4 8))))
(assert (not (= x18 (_ bv9 8))))
(assert (not (= x18 x78)))
(assert (not (= x18 x88)))
(assert (not (= (_ bv2 8) (_ bv8 8))))
(assert (not (= (_ bv2 8) x48)))
(assert (not (= (_ bv2 8) (_ bv4 8))))
(assert (not (= (_ bv2 8) (_ bv9 8))))
(assert (not (= (_ bv2 8) x78)))
(assert (not (= (_ bv2 8) x88)))
(assert (not (= (_ bv8 8) x48)))
(assert (not (= (_ bv8 8) (_ bv4 8))))
(assert (not (= (_ bv8 8) (_ bv9 8))))
(assert (not (= (_ bv8 8) x78)))
(assert (not (= (_ bv8 8) x88)))
(assert (not (= x48 (_ bv4 8))))
(assert (not (= x48 (_ bv9 8))))
(assert (not (= x48 x78)))
(assert (not (= x48 x88)))
(assert (not (= (_ bv4 8) (_ bv9 8))))
(assert (not (= (_ bv4 8) x78)))
(assert (not (= (_ bv4 8) x88)))
(assert (not (= (_ bv9 8) x78)))
(assert (not (= (_ bv9 8) x88)))
(assert (not (= x78 x88)))
(assert (not (= x00 x01)))
(assert (not (= x00 x02)))
(assert (not (= x00 (_ bv3 8))))
(assert (not (= x00 (_ bv8 8))))
(assert (not (= x00 x12)))
(assert (not (= x00 x20)))
(assert (not (= x00 x21)))
(assert (not (= x00 (_ bv5 8))))
(assert (not (= x01 x02)))
(assert (not (= x01 (_ bv3 8))))
(assert (not (= x01 (_ bv8 8))))
(assert (not (= x01 x12)))
(assert (not (= x01 x20)))
(assert (not (= x01 x21)))
(assert (not (= x01 (_ bv5 8))))
(assert (not (= x02 (_ bv3 8))))
(assert (not (= x02 (_ bv8 8))))
(assert (not (= x02 x12)))
(assert (not (= x02 x20)))
(assert (not (= x02 x21)))
(assert (not (= x02 (_ bv5 8))))
(assert (not (= (_ bv3 8) (_ bv8 8))))
(assert (not (= (_ bv3 8) x12)))
(assert (not (= (_ bv3 8) x20)))
(assert (not (= (_ bv3 8) x21)))
(assert (not (= (_ bv3 8) (_ bv5 8))))
(assert (not (= (_ bv8 8) x12)))
(assert (not (= (_ bv8 8) x20)))
(assert (not (= (_ bv8 8) x21)))
(assert (not (= (_ bv8 8) (_ bv5 8))))
(assert (not (= x12 x20)))
(assert (not (= x12 x21)))
(assert (not (= x12 (_ bv5 8))))
(assert (not (= x20 x21)))
(assert (not (= x20 (_ bv5 8))))
(assert (not (= x21 (_ bv5 8))))
(assert (not (= (_ bv3 8) x04)))
(assert (not (= (_ bv3 8) (_ bv6 8))))
(assert (not (= (_ bv3 8) x13)))
(assert (not (= (_ bv3 8) x14)))
(assert (not (= (_ bv3 8) x15)))
(assert (not (= (_ bv3 8) x23)))
(assert (not (= (_ bv3 8) (_ bv8 8))))
(assert (not (= (_ bv3 8) (_ bv1 8))))
(assert (not (= x04 (_ bv6 8))))
(assert (not (= x04 x13)))
(assert (not (= x04 x14)))
(assert (not (= x04 x15)))
(assert (not (= x04 x23)))
(assert (not (= x04 (_ bv8 8))))
(assert (not (= x04 (_ bv1 8))))
(assert (not (= (_ bv6 8) x13)))
(assert (not (= (_ bv6 8) x14)))
(assert (not (= (_ bv6 8) x15)))
(assert (not (= (_ bv6 8) x23)))
(assert (not (= (_ bv6 8) (_ bv8 8))))
(assert (not (= (_ bv6 8) (_ bv1 8))))
(assert (not (= x13 x14)))
(assert (not (= x13 x15)))
(assert (not (= x13 x23)))
(assert (not (= x13 (_ bv8 8))))
(assert (not (= x13 (_ bv1 8))))
(assert (not (= x14 x15)))
(assert (not (= x14 x23)))
(assert (not (= x14 (_ bv8 8))))
(assert (not (= x14 (_ bv1 8))))
(assert (not (= x15 x23)))
(assert (not (= x15 (_ bv8 8))))
(assert (not (= x15 (_ bv1 8))))
(assert (not (= x23 (_ bv8 8))))
(assert (not (= x23 (_ bv1 8))))
(assert (not (= (_ bv8 8) (_ bv1 8))))
(assert (not (= x06 (_ bv9 8))))
(assert (not (= x06 x08)))
(assert (not (= x06 (_ bv7 8))))
(assert (not (= x06 x17)))
(assert (not (= x06 x18)))
(assert (not (= x06 x26)))
(assert (not (= x06 x27)))
(assert (not (= x06 (_ bv2 8))))
(assert (not (= (_ bv9 8) x08)))
(assert (not (= (_ bv9 8) (_ bv7 8))))
(assert (not (= (_ bv9 8) x17)))
(assert (not (= (_ bv9 8) x18)))
(assert (not (= (_ bv9 8) x26)))
(assert (not (= (_ bv9 8) x27)))
(assert (not (= (_ bv9 8) (_ bv2 8))))
(assert (not (= x08 (_ bv7 8))))
(assert (not (= x08 x17)))
(assert (not (= x08 x18)))
(assert (not (= x08 x26)))
(assert (not (= x08 x27)))
(assert (not (= x08 (_ bv2 8))))
(assert (not (= (_ bv7 8) x17)))
(assert (not (= (_ bv7 8) x18)))
(assert (not (= (_ bv7 8) x26)))
(assert (not (= (_ bv7 8) x27)))
(assert (not (= (_ bv7 8) (_ bv2 8))))
(assert (not (= x17 x18)))
(assert (not (= x17 x26)))
(assert (not (= x17 x27)))
(assert (not (= x17 (_ bv2 8))))
(assert (not (= x18 x26)))
(assert (not (= x18 x27)))
(assert (not (= x18 (_ bv2 8))))
(assert (not (= x26 x27)))
(assert (not (= x26 (_ bv2 8))))
(assert (not (= x27 (_ bv2 8))))
(assert (not (= (_ bv9 8) x31)))
(assert (not (= (_ bv9 8) (_ bv1 8))))
(assert (not (= (_ bv9 8) x40)))
(assert (not (= (_ bv9 8) (_ bv5 8))))
(assert (not (= (_ bv9 8) (_ bv8 8))))
(assert (not (= (_ bv9 8) (_ bv7 8))))
(assert (not (= (_ bv9 8) x51)))
(assert (not (= (_ bv9 8) x52)))
(assert (not (= x31 (_ bv1 8))))
(assert (not (= x31 x40)))
(assert (not (= x31 (_ bv5 8))))
(assert (not (= x31 (_ bv8 8))))
(assert (not (= x31 (_ bv7 8))))
(assert (not (= x31 x51)))
(assert (not (= x31 x52)))
(assert (not (= (_ bv1 8) x40)))
(assert (not (= (_ bv1 8) (_ bv5 8))))
(assert (not (= (_ bv1 8) (_ bv8 8))))
(assert (not (= (_ bv1 8) (_ bv7 8))))
(assert (not (= (_ bv1 8) x51)))
(assert (not (= (_ bv1 8) x52)))
(assert (not (= x40 (_ bv5 8))))
(assert (not (= x40 (_ bv8 8))))
(assert (not (= x40 (_ bv7 8))))
(assert (not (= x40 x51)))
(assert (not (= x40 x52)))
(assert (not (= (_ bv5 8) (_ bv8 8))))
(assert (not (= (_ bv5 8) (_ bv7 8))))
(assert (not (= (_ bv5 8) x51)))
(assert (not (= (_ bv5 8) x52)))
(assert (not (= (_ bv8 8) (_ bv7 8))))
(assert (not (= (_ bv8 8) x51)))
(assert (not (= (_ bv8 8) x52)))
(assert (not (= (_ bv7 8) x51)))
(assert (not (= (_ bv7 8) x52)))
(assert (not (= x51 x52)))
(assert (not (= x33 (_ bv5 8))))
(assert (not (= x33 x35)))
(assert (not (= x33 (_ bv6 8))))
(assert (not (= x33 (_ bv2 8))))
(assert (not (= x33 x45)))
(assert (not (= x33 x53)))
(assert (not (= x33 x54)))
(assert (not (= x33 x55)))
(assert (not (= (_ bv5 8) x35)))
(assert (not (= (_ bv5 8) (_ bv6 8))))
(assert (not (= (_ bv5 8) (_ bv2 8))))
(assert (not (= (_ bv5 8) x45)))
(assert (not (= (_ bv5 8) x53)))
(assert (not (= (_ bv5 8) x54)))
(assert (not (= (_ bv5 8) x55)))
(assert (not (= x35 (_ bv6 8))))
(assert (not (= x35 (_ bv2 8))))
(assert (not (= x35 x45)))
(assert (not (= x35 x53)))
(assert (not (= x35 x54)))
(assert (not (= x35 x55)))
(assert (not (= (_ bv6 8) (_ bv2 8))))
(assert (not (= (_ bv6 8) x45)))
(assert (not (= (_ bv6 8) x53)))
(assert (not (= (_ bv6 8) x54)))
(assert (not (= (_ bv6 8) x55)))
(assert (not (= (_ bv2 8) x45)))
(assert (not (= (_ bv2 8) x53)))
(assert (not (= (_ bv2 8) x54)))
(assert (not (= (_ bv2 8) x55)))
(assert (not (= x45 x53)))
(assert (not (= x45 x54)))
(assert (not (= x45 x55)))
(assert (not (= x53 x54)))
(assert (not (= x53 x55)))
(assert (not (= x54 x55)))
(assert (not (= x36 (_ bv3 8))))
(assert (not (= x36 (_ bv8 8))))
(assert (not (= x36 x46)))
(assert (not (= x36 (_ bv7 8))))
(assert (not (= x36 x48)))
(assert (not (= x36 x56)))
(assert (not (= x36 x57)))
(assert (not (= x36 (_ bv4 8))))
(assert (not (= (_ bv3 8) (_ bv8 8))))
(assert (not (= (_ bv3 8) x46)))
(assert (not (= (_ bv3 8) (_ bv7 8))))
(assert (not (= (_ bv3 8) x48)))
(assert (not (= (_ bv3 8) x56)))
(assert (not (= (_ bv3 8) x57)))
(assert (not (= (_ bv3 8) (_ bv4 8))))
(assert (not (= (_ bv8 8) x46)))
(assert (not (= (_ bv8 8) (_ bv7 8))))
(assert (not (= (_ bv8 8) x48)))
(assert (not (= (_ bv8 8) x56)))
(assert (not (= (_ bv8 8) x57)))
(assert (not (= (_ bv8 8) (_ bv4 8))))
(assert (not (= x46 (_ bv7 8))))
(assert (not (= x46 x48)))
(assert (not (= x46 x56)))
(assert (not (= x46 x57)))
(assert (not (= x46 (_ bv4 8))))
(assert (not (= (_ bv7 8) x48)))
(assert (not (= (_ bv7 8) x56)))
(assert (not (= (_ bv7 8) x57)))
(assert (not (= (_ bv7 8) (_ bv4 8))))
(assert (not (= x48 x56)))
(assert (not (= x48 x57)))
(assert (not (= x48 (_ bv4 8))))
(assert (not (= x56 x57)))
(assert (not (= x56 (_ bv4 8))))
(assert (not (= x57 (_ bv4 8))))
(assert (not (= x60 (_ bv2 8))))
(assert (not (= x60 (_ bv3 8))))
(assert (not (= x60 x70)))
(assert (not (= x60 (_ bv9 8))))
(assert (not (= x60 x72)))
(assert (not (= x60 x80)))
(assert (not (= x60 x81)))
(assert (not (= x60 (_ bv6 8))))
(assert (not (= (_ bv2 8) (_ bv3 8))))
(assert (not (= (_ bv2 8) x70)))
(assert (not (= (_ bv2 8) (_ bv9 8))))
(assert (not (= (_ bv2 8) x72)))
(assert (not (= (_ bv2 8) x80)))
(assert (not (= (_ bv2 8) x81)))
(assert (not (= (_ bv2 8) (_ bv6 8))))
(assert (not (= (_ bv3 8) x70)))
(assert (not (= (_ bv3 8) (_ bv9 8))))
(assert (not (= (_ bv3 8) x72)))
(assert (not (= (_ bv3 8) x80)))
(assert (not (= (_ bv3 8) x81)))
(assert (not (= (_ bv3 8) (_ bv6 8))))
(assert (not (= x70 (_ bv9 8))))
(assert (not (= x70 x72)))
(assert (not (= x70 x80)))
(assert (not (= x70 x81)))
(assert (not (= x70 (_ bv6 8))))
(assert (not (= (_ bv9 8) x72)))
(assert (not (= (_ bv9 8) x80)))
(assert (not (= (_ bv9 8) x81)))
(assert (not (= (_ bv9 8) (_ bv6 8))))
(assert (not (= x72 x80)))
(assert (not (= x72 x81)))
(assert (not (= x72 (_ bv6 8))))
(assert (not (= x80 x81)))
(assert (not (= x80 (_ bv6 8))))
(assert (not (= x81 (_ bv6 8))))
(assert (not (= (_ bv7 8) (_ bv6 8))))
(assert (not (= (_ bv7 8) x65)))
(assert (not (= (_ bv7 8) (_ bv5 8))))
(assert (not (= (_ bv7 8) x74)))
(assert (not (= (_ bv7 8) (_ bv2 8))))
(assert (not (= (_ bv7 8) (_ bv8 8))))
(assert (not (= (_ bv7 8) (_ bv3 8))))
(assert (not (= (_ bv7 8) x85)))
(assert (not (= (_ bv6 8) x65)))
(assert (not (= (_ bv6 8) (_ bv5 8))))
(assert (not (= (_ bv6 8) x74)))
(assert (not (= (_ bv6 8) (_ bv2 8))))
(assert (not (= (_ bv6 8) (_ bv8 8))))
(assert (not (= (_ bv6 8) (_ bv3 8))))
(assert (not (= (_ bv6 8) x85)))
(assert (not (= x65 (_ bv5 8))))
(assert (not (= x65 x74)))
(assert (not (= x65 (_ bv2 8))))
(assert (not (= x65 (_ bv8 8))))
(assert (not (= x65 (_ bv3 8))))
(assert (not (= x65 x85)))
(assert (not (= (_ bv5 8) x74)))
(assert (not (= (_ bv5 8) (_ bv2 8))))
(assert (not (= (_ bv5 8) (_ bv8 8))))
(assert (not (= (_ bv5 8) (_ bv3 8))))
(assert (not (= (_ bv5 8) x85)))
(assert (not (= x74 (_ bv2 8))))
(assert (not (= x74 (_ bv8 8))))
(assert (not (= x74 (_ bv3 8))))
(assert (not (= x74 x85)))
(assert (not (= (_ bv2 8) (_ bv8 8))))
(assert (not (= (_ bv2 8) (_ bv3 8))))
(assert (not (= (_ bv2 8) x85)))
(assert (not (= (_ bv8 8) (_ bv3 8))))
(assert (not (= (_ bv8 8) x85)))
(assert (not (= (_ bv3 8) x85)))
(assert (not (= x66 x67)))
(assert (not (= x66 (_ bv9 8))))
(assert (not (= x66 (_ bv4 8))))
(assert (not (= x66 x77)))
(assert (not (= x66 x78)))
(assert (not (= x66 (_ bv5 8))))
(assert (not (= x66 x87)))
(assert (not (= x66 x88)))
(assert (not (= x67 (_ bv9 8))))
(assert (not (= x67 (_ bv4 8))))
(assert (not (= x67 x77)))
(assert (not (= x67 x78)))
(assert (not (= x67 (_ bv5 8))))
(assert (not (= x67 x87)))
(assert (not (= x67 x88)))
(assert (not (= (_ bv9 8) (_ bv4 8))))
(assert (not (= (_ bv9 8) x77)))
(assert (not (= (_ bv9 8) x78)))
(assert (not (= (_ bv9 8) (_ bv5 8))))
(assert (not (= (_ bv9 8) x87)))
(assert (not (= (_ bv9 8) x88)))
(assert (not (= (_ bv4 8) x77)))
(assert (not (= (_ bv4 8) x78)))
(assert (not (= (_ bv4 8) (_ bv5 8))))
(assert (not (= (_ bv4 8) x87)))
(assert (not (= (_ bv4 8) x88)))
(assert (not (= x77 x78)))
(assert (not (= x77 (_ bv5 8))))
(assert (not (= x77 x87)))
(assert (not (= x77 x88)))
(assert (not (= x78 (_ bv5 8))))
(assert (not (= x78 x87)))
(assert (not (= x78 x88)))
(assert (not (= (_ bv5 8) x87)))
(assert (not (= (_ bv5 8) x88)))
(assert (not (= x87 x88)))
(check-sat)
(exit)
